words_hard_train/4225.qaiger
aag 171 24 0 1 147
2
4
8
16
28
36
48
56
68
76
88
96
110
114
126
138
150
162
246
254
268
294
296
320
343
6 2 4
10 2 8
12 3 9
14 11 13
18 15 17
20 14 16
22 19 21
24 6 22
26 25 21
30 13 28
32 12 29
34 31 33
38 35 37
40 34 36
42 39 41
44 27 42
46 45 41
50 33 48
52 32 49
54 51 53
58 55 57
60 54 56
62 59 61
64 47 62
66 65 61
70 53 68
72 52 69
74 71 73
78 75 77
80 74 76
82 79 81
84 67 82
86 85 81
90 73 88
92 72 89
94 91 93
98 95 97
100 94 96
102 99 101
104 86 103
106 87 102
108 105 107
112 4 110
116 110 114
118 117 16
120 111 115
122 118 121
124 113 123
128 121 126
130 129 36
132 120 127
134 130 133
136 124 135
140 133 138
142 141 56
144 132 139
146 142 145
148 136 147
152 145 150
154 153 76
156 144 151
158 154 157
160 148 159
164 157 162
166 165 96
168 156 163
170 166 169
172 161 170
174 160 171
176 173 175
178 108 176
180 46 63
182 181 65
184 183 146
186 185 149
188 66 83
190 189 85
192 149 158
194 193 161
196 191 195
198 186 197
200 26 43
202 201 45
204 203 125
206 205 135
208 182 147
210 207 209
212 22 122
214 213 6
216 214 111
218 23 122
220 219 25
222 221 125
224 217 222
226 203 134
228 225 227
230 210 229
232 198 231
234 190 194
236 233 235
238 109 177
240 237 239
242 179 241
244 107 101
248 93 246
250 92 247
252 249 251
256 253 255
258 252 254
260 257 259
262 244 261
264 245 260
266 263 265
270 169 268
272 271 254
274 168 269
276 272 275
278 175 276
280 174 277
282 279 281
284 267 283
286 243 285
288 266 282
290 287 289
292 291 280
298 294 296
300 295 297
302 299 301
304 302 251
306 303 250
308 305 307
310 265 259
312 309 311
314 308 310
316 313 315
318 293 317
322 274 321
324 323 296
326 275 320
328 324 327
330 318 329
332 316 328
334 290 333
336 335 293
338 333 280
340 337 339
342 331 341
i0 1 x2[0]
i1 2 y1[0]
i2 1 x2[1]
i3 2 y1[1]
i4 1 x2[2]
i5 2 y1[2]
i6 1 x2[3]
i7 2 y1[3]
i8 1 x2[4]
i9 2 y1[4]
i10 1 x2[5]
i11 2 y1[5]
i12 2 y2[0]
i13 2 y2[1]
i14 2 y2[2]
i15 2 y2[3]
i16 2 y2[4]
i17 2 y2[5]
i18 1 x2[6]
i19 2 y1[6]
i20 2 y2[6]
i21 1 x2[7]
i22 2 y1[7]
i23 2 y2[7]
o0 bv[0]
c
simplified
  <
    subtract
      2 y1
      1 x2
    and
      unary minus
        2 y2
      2 y1
