words_hard_train/4225.qaiger.qdimacs
p cnf 171 442
a 1 34 4 44 14 147 24 123 0
e 2 3 5 6 7 8 9 10 11 12 13 15 16 17 18 19 20 21 22 23 25 26 27 28 29 30 31 32 33 35 36 37 38 39 40 41 42 43 45 46 47 48 49 50 51 52 53 54 55 56 57 58 59 60 61 62 63 64 65 66 67 68 69 70 71 72 73 74 75 76 77 78 79 80 81 82 83 84 85 86 87 88 89 90 91 92 93 94 95 96 97 98 99 100 101 102 103 104 105 106 107 108 109 110 111 112 113 114 115 116 117 118 119 120 121 122 124 125 126 127 128 129 130 131 132 133 134 135 136 137 138 139 140 141 142 143 144 145 146 148 149 150 151 152 153 154 155 156 157 158 159 160 161 162 163 164 165 166 167 168 169 170 171 0
-1 -2 3 0
1 -3 0
2 -3 0
-1 -4 5 0
1 -5 0
4 -5 0
1 4 6 0
-1 -6 0
-4 -6 0
5 6 7 0
-5 -7 0
-6 -7 0
7 8 9 0
-7 -9 0
-8 -9 0
-7 -8 10 0
7 -10 0
8 -10 0
9 10 11 0
-9 -11 0
-10 -11 0
-3 -11 12 0
3 -12 0
11 -12 0
12 10 13 0
-12 -13 0
-10 -13 0
6 -14 15 0
-6 -15 0
14 -15 0
-6 14 16 0
6 -16 0
-14 -16 0
15 16 17 0
-15 -17 0
-16 -17 0
17 18 19 0
-17 -19 0
-18 -19 0
-17 -18 20 0
17 -20 0
18 -20 0
19 20 21 0
-19 -21 0
-20 -21 0
13 -21 22 0
-13 -22 0
21 -22 0
22 20 23 0
-22 -23 0
-20 -23 0
16 -24 25 0
-16 -25 0
24 -25 0
-16 24 26 0
16 -26 0
-24 -26 0
25 26 27 0
-25 -27 0
-26 -27 0
27 28 29 0
-27 -29 0
-28 -29 0
-27 -28 30 0
27 -30 0
28 -30 0
29 30 31 0
-29 -31 0
-30 -31 0
23 -31 32 0
-23 -32 0
31 -32 0
32 30 33 0
-32 -33 0
-30 -33 0
26 -34 35 0
-26 -35 0
34 -35 0
-26 34 36 0
26 -36 0
-34 -36 0
35 36 37 0
-35 -37 0
-36 -37 0
37 38 39 0
-37 -39 0
-38 -39 0
-37 -38 40 0
37 -40 0
38 -40 0
39 40 41 0
-39 -41 0
-40 -41 0
33 -41 42 0
-33 -42 0
41 -42 0
42 40 43 0
-42 -43 0
-40 -43 0
36 -44 45 0
-36 -45 0
44 -45 0
-36 44 46 0
36 -46 0
-44 -46 0
45 46 47 0
-45 -47 0
-46 -47 0
47 48 49 0
-47 -49 0
-48 -49 0
-47 -48 50 0
47 -50 0
48 -50 0
49 50 51 0
-49 -51 0
-50 -51 0
-43 51 52 0
43 -52 0
-51 -52 0
43 -51 53 0
-43 -53 0
51 -53 0
52 53 54 0
-52 -54 0
-53 -54 0
-2 -55 56 0
2 -56 0
55 -56 0
-55 -57 58 0
55 -58 0
57 -58 0
58 -8 59 0
-58 -59 0
8 -59 0
55 57 60 0
-55 -60 0
-57 -60 0
-59 60 61 0
59 -61 0
-60 -61 0
56 61 62 0
-56 -62 0
-61 -62 0
60 -63 64 0
-60 -64 0
63 -64 0
64 -18 65 0
-64 -65 0
18 -65 0
-60 63 66 0
60 -66 0
-63 -66 0
-65 66 67 0
65 -67 0
-66 -67 0
-62 67 68 0
62 -68 0
-67 -68 0
66 -69 70 0
-66 -70 0
69 -70 0
70 -28 71 0
-70 -71 0
28 -71 0
-66 69 72 0
66 -72 0
-69 -72 0
-71 72 73 0
71 -73 0
-72 -73 0
-68 73 74 0
68 -74 0
-73 -74 0
72 -75 76 0
-72 -76 0
75 -76 0
76 -38 77 0
-76 -77 0
38 -77 0
-72 75 78 0
72 -78 0
-75 -78 0
-77 78 79 0
77 -79 0
-78 -79 0
-74 79 80 0
74 -80 0
-79 -80 0
78 -81 82 0
-78 -82 0
81 -82 0
82 -48 83 0
-82 -83 0
48 -83 0
-78 81 84 0
78 -84 0
-81 -84 0
-83 84 85 0
83 -85 0
-84 -85 0
80 -85 86 0
-80 -86 0
85 -86 0
-80 85 87 0
80 -87 0
-85 -87 0
86 87 88 0
-86 -88 0
-87 -88 0
-54 -88 89 0
54 -89 0
88 -89 0
-23 31 90 0
23 -90 0
-31 -90 0
90 32 91 0
-90 -91 0
-32 -91 0
91 -73 92 0
-91 -92 0
73 -92 0
92 74 93 0
-92 -93 0
-74 -93 0
-33 41 94 0
33 -94 0
-41 -94 0
94 42 95 0
-94 -95 0
-42 -95 0
74 -79 96 0
-74 -96 0
79 -96 0
96 80 97 0
-96 -97 0
-80 -97 0
95 97 98 0
-95 -98 0
-97 -98 0
-93 98 99 0
93 -99 0
-98 -99 0
-13 21 100 0
13 -100 0
-21 -100 0
100 22 101 0
-100 -101 0
-22 -101 0
101 62 102 0
-101 -102 0
-62 -102 0
102 67 103 0
-102 -103 0
-67 -103 0
-91 73 104 0
91 -104 0
-73 -104 0
103 104 105 0
-103 -105 0
-104 -105 0
-11 -61 106 0
11 -106 0
61 -106 0
106 -3 107 0
-106 -107 0
3 -107 0
-107 55 108 0
107 -108 0
-55 -108 0
11 -61 109 0
-11 -109 0
61 -109 0
109 12 110 0
-109 -110 0
-12 -110 0
110 62 111 0
-110 -111 0
-62 -111 0
108 -111 112 0
-108 -112 0
111 -112 0
101 -67 113 0
-101 -113 0
67 -113 0
112 113 114 0
-112 -114 0
-113 -114 0
-105 114 115 0
105 -115 0
-114 -115 0
-99 115 116 0
99 -116 0
-115 -116 0
-95 -97 117 0
95 -117 0
97 -117 0
116 117 118 0
-116 -118 0
-117 -118 0
54 88 119 0
-54 -119 0
-88 -119 0
118 119 120 0
-118 -120 0
-119 -120 0
89 120 121 0
-89 -121 0
-120 -121 0
53 50 122 0
-53 -122 0
-50 -122 0
46 -123 124 0
-46 -124 0
123 -124 0
-46 123 125 0
46 -125 0
-123 -125 0
124 125 126 0
-124 -126 0
-125 -126 0
126 127 128 0
-126 -128 0
-127 -128 0
-126 -127 129 0
126 -129 0
127 -129 0
128 129 130 0
-128 -130 0
-129 -130 0
-122 130 131 0
122 -131 0
-130 -131 0
122 -130 132 0
-122 -132 0
130 -132 0
131 132 133 0
-131 -133 0
-132 -133 0
84 -134 135 0
-84 -135 0
134 -135 0
135 -127 136 0
-135 -136 0
127 -136 0
-84 134 137 0
84 -137 0
-134 -137 0
-136 137 138 0
136 -138 0
-137 -138 0
87 -138 139 0
-87 -139 0
138 -139 0
-87 138 140 0
87 -140 0
-138 -140 0
139 140 141 0
-139 -141 0
-140 -141 0
133 141 142 0
-133 -142 0
-141 -142 0
121 142 143 0
-121 -143 0
-142 -143 0
-133 -141 144 0
133 -144 0
141 -144 0
143 144 145 0
-143 -145 0
-144 -145 0
145 -140 146 0
-145 -146 0
140 -146 0
-147 -148 149 0
147 -149 0
148 -149 0
147 148 150 0
-147 -150 0
-148 -150 0
149 150 151 0
-149 -151 0
-150 -151 0
-151 125 152 0
151 -152 0
-125 -152 0
151 -125 153 0
-151 -153 0
125 -153 0
152 153 154 0
-152 -154 0
-153 -154 0
132 129 155 0
-132 -155 0
-129 -155 0
154 155 156 0
-154 -156 0
-155 -156 0
-154 -155 157 0
154 -157 0
155 -157 0
156 157 158 0
-156 -158 0
-157 -158 0
146 158 159 0
-146 -159 0
-158 -159 0
-137 160 161 0
137 -161 0
-160 -161 0
161 -148 162 0
-161 -162 0
148 -162 0
137 -160 163 0
-137 -163 0
160 -163 0
-162 163 164 0
162 -164 0
-163 -164 0
-159 164 165 0
159 -165 0
-164 -165 0
-158 -164 166 0
158 -166 0
164 -166 0
-145 166 167 0
145 -167 0
-166 -167 0
167 146 168 0
-167 -168 0
-146 -168 0
166 -140 169 0
-166 -169 0
140 -169 0
168 169 170 0
-168 -170 0
-169 -170 0
165 170 171 0
-165 -171 0
-170 -171 0
-171 0
